\* test *\
Minimize
OBJ: __dummy
Subject To
_C1: 0_0 + 1_0 + 2_0 = 100
_C2: 0_1 + 1_1 + 2_1 = 100
_C3: 0_2 + 1_2 + 2_2 = 100
_C4: 0_0 + 0_1 + 0_2 = 100
_C5: 1_0 + 1_1 + 1_2 = 100
_C6: 2_0 + 2_1 + 2_2 = 100
_C7: 0_0 - 1_0 >= 1
_C8: 0_0 - 2_0 >= 1
Bounds
 0 <= 0_0
 0 <= 0_1
 0 <= 0_2
 0 <= 1_0
 0 <= 1_1
 0 <= 1_2
 0 <= 2_0
 0 <= 2_1
 0 <= 2_2
 __dummy = 0
Generals
0_0
0_1
0_2
1_0
1_1
1_2
2_0
2_1
2_2
End
